NAME : portcgen-21-14
COMMENT : portcgen N=21, seed=14
TYPE : TSP
DIMENSION : 21
EDGE_WEIGHT_TYPE : EUC_2D
NODE_COORD_SECTION
1 -567242 -238521
2 -321658 392980
3 80599 -132372
4 136427 -99609
5 357030 -136870
6 155061 -156300
7 232227 -59228
8 316896 -56098
9 -48803 -244720
10 -176736 -53063
11 -144352 -65145
12 14320 63872
13 -267407 -72071
14 194616 476691
15 110150 241837
16 98862 92603
17 149444 -364585
18 109110 -105724
19 112480 -143049
20 -183675 231663
21 -275913 -358173
